NAME : 10_3_3_2_(15).dat
COMMENT : Henke, Speranza, Wäscher, 2015
TYPE : MCVRP
DIMENSION : 11
EDGE_WEIGHT_TYPE : DISTANCE_MATRIX
CAPACITY : 1000
VEHICLES : 3
PRODUCT TYPES : 3
COMPARTMENTS : 3
NODE_COORD_SECTION
1 50 50
2 6.22 84.43
3 52.01 35.8
4 92.38 98.42
5 17.78 78.27
6 90.36 21.58
7 32.34 53.22
8 18.95 26.21
9 56.7 69.25
10 79.55 50.18
11 31.81 92.96
DEMAND_SECTION
1 0 0 0
2 86 230 0
3 97 0 61
4 30 53 0
5 70 0 17
6 101 0 75
7 21 0 90
8 135 0 42
9 103 2 0
10 101 214 0
11 88 0 48
DEPOT_SECTION
1
EOF